0 1353
1 1323
2 1294
3 1270
4 1253
5 1242
6 1218
7 1204
8 1187
9 1170
10 1159
11 1148
12 1139
13 1129
14 1121
15 1117
16 1112
17 1103
18 1095
19 1090
20 1082
21 1079
22 1077
23 1070
24 1060
25 1054
26 1051
27 1047
28 1042
29 1038
30 1032
31 1025
32 1017
33 1014
34 1009
35 1006
36 1005
37 999
38 996
39 994
40 991
41 983
42 982
43 977
44 972
45 962
46 959
47 956
48 951
49 946
50 941
51 936
52 929
53 923
54 917
55 913
56 907
57 899
58 891
59 888
60 883
61 878
62 871
63 869
64 866
65 863
66 857
67 849
68 842
69 838
70 834
71 830
72 825
73 822
74 814
75 806
76 804
77 802
78 797
79 793
80 789
81 781
82 776
83 771
84 766
85 758
86 754
87 752
88 750
89 746
90 742
91 740
92 737
93 732
94 728
95 726
96 723
97 720
98 715
99 711
100 706
101 704
102 698
103 694
104 692
105 689
106 683
107 683
108 678
109 677
110 672
111 669
112 664
113 664
114 661
115 657
116 651
117 648
118 646
119 641
120 639
121 635
122 633
123 631
124 628
125 625
126 624
127 621
128 619
129 618
130 616
131 614
132 611
133 608
134 606
135 603
136 601
137 600
138 599
139 598
140 596
141 596
142 594
143 591
144 589
145 587
146 584
147 582
148 580
149 577
150 577
151 575
152 573
153 572
154 570
155 569
156 564
157 562
158 561
159 558
160 556
161 555
162 551
163 549
164 548
165 546
166 544
167 542
168 541
169 540
170 538
171 537
172 534
173 533
174 533
175 532
176 530
177 528
178 527
179 524
180 523
181 522
182 518
183 516
184 515
185 513
186 513
187 512
188 511
189 509
190 508
191 507
192 506
193 505
194 504
195 503
196 502
197 501
198 500
199 499
200 499
201 498
202 497
203 495
204 494
205 492
206 492
207 491
208 490
209 490
210 490
211 488
212 488
213 487
214 487
215 486
216 486
217 484
218 484
219 484
220 482
221 480
222 480
223 479
224 477
225 477
226 476
227 475
228 475
229 474
230 474
231 473
232 473
233 472
234 472
235 472
236 471
237 470
238 470
239 470
240 469
241 469
242 468
243 468
244 468
245 467
246 467
247 467
248 466
249 466
